5,1,4,1,5,3,2,3,9,5,2,5,7,6,4,8,9,9,1,10,7,10;10,2,5,2,4,2,5,6,4,4,7,5,6,9,5,9,3,8,8,9,9,10;10,3,2,1,1,3,10,6,8,4,4,5,5,8,8,8,2,8,7,8,6,10;10,4,3,2,6,3,3,4,4,3,5,7,9,6,8,7,3,7,2,9,10,10;6,1,10,5,5,5,3,5,9,4,8,5,8,6,4,6,2,6,7,7,1,9,8,10;7,1,5,4,6,5,6,6,2,4,3,6,4,7,5,10;6,2,9,2,8,3,1,5,6,7,10,7,2,7,10,9;10,1,9,1,3,3,6,4,1,4,1,6,1,7,10,8,9,8,7,9;1,2,8,2,9,3,7,3,7,4,9,7,4,9,2,10;1,1,3,1,8,1,2,2,7,2,6,8,1,8,3,9,3,10,4,10;
